p cnf 34 95
-5 -1 0
-5 2 0
-5 1 0
-5 -2 0
-6 -3 0
-6 4 0
-6 3 0
-6 -4 0
3 -4 6 0
-3 4 6 0
-7 5 6 0
-5 7 0
7 -6 0
-8 5 6 0
-5 8 0
-6 8 0
-9 5 6 0
-5 8 0
-6 9 0
-10 7 0
-10 8 0
-7 -8 10 0
-11 7 0
-11 8 0
-7 -8 11 0
-12 8 0
-12 9 0
-8 -9 12 0
-13 10 12 0
-10 13 0
-11 13 0
-14 10 0
-14 11 0
-10 -11 14 0
-15 11 12 0
-11 15 0
-12 15 0
-16 12 0
-16 11 0
-12 -11 16 0
-17 5 6 0
-13 17 0
-14 17 0
-18 15 16 0
-15 18 0
-16 18 0
-19 17 18 0
-17 19 0
-18 19 0
-20 -1 0
-20 2 0
-20 1 0
-20 -2 0
-21 -3 0
-21 4 0
-21 3 0
-21 -4 0
3 -4 21 0
-3 4 21 0
-22 20 21 0
-20 22 0
22 -21 0
-23 20 21 0
-20 23 0
-21 23 0
-24 20 21 0
-20 24 0
-21 24 0
-25 22 0
-25 23 0
-22 -23 25 0
-26 22 0
-26 23 0
-22 -23 26 0
-27 23 0
-27 24 0
-23 -24 27 0
-28 25 27 0
-25 28 0
-26 28 0
-29 25 0
-29 26 0
-25 -26 29 0
-30 26 27 0
-26 30 0
-27 30 0
-31 27 0
-31 26 0
-27 -26 31 0
-32 20 21 0
-28 32 0
-29 32 0
-33 30 31 0
-30 33 0
-31 33 0
-34 -32 0
-34 33 0
-34 32 0
-34 -33 0
32 -33 34 0
-32 33 34 0
19 34 0
-19 -34 0
